(set-logic QF_AUFBV)
(declare-fun bvlambda_1_ () (_ BitVec 1))
(declare-fun bvlambda_2_ () (_ BitVec 1))
(declare-fun bvlambda_3_ () (_ BitVec 7))
(declare-fun bvlambda_4_ () (_ BitVec 1))
(declare-fun bvlambda_5_ () (_ BitVec 1))
(declare-fun bvlambda_6_ () (_ BitVec 1))
(declare-fun bvlambda_7_ () (_ BitVec 2))
(declare-fun a25 () (Array (_ BitVec 1) (_ BitVec 13)))
(assert
(let (($e1 (_ bv0 1)))
(let (($e2 (_ bv2 2)))
(let (($e3 (_ bv1194 12)))
(let (($e4 (_ bv0 7)))
(let (($e5 (_ bv5290 13)))
(let (($e6 (_ bv8190 13)))
(let (($e7 (_ bv0 8)))
(let (($e8 (_ bv0 4)))
(let (($e9 (_ bv0 13)))
(let (($e10 (_ bv0 12)))
(let (($e11 (_ bv1700 12)))
(let (($e12 (_ bv0 10)))
(let (($e13 (_ bv348 11)))
(let (($e14 (_ bv0 2)))
(let (($e15 (_ bv0 11)))
(let (($e16 (_ bv0 5)))
(let (($e17 (_ bv3748 12)))
(let (($e26 (select a25 bvlambda_2_)))
(let (($e27 (select a25 (bvnot $e1))))
(let (($e28 ((_ extract 12 12) $e27)))
(let (($e29 (store a25 $e1 (bvnot $e5))))
(let (($e30 (select $e29 $e28)))
(let (($e31 (bvand $e30 $e26)))
(let (($e32 ((_ extract 7 7) $e26)))
(let (($e33 (concat $e7 bvlambda_4_)))
(let (($e34 (concat $e33 bvlambda_5_)))
(let (($e35 (concat $e34 bvlambda_6_)))
(let (($e36 (concat $e35 bvlambda_7_)))
(let (($e37 (concat (bvnot $e7) bvlambda_4_)))
(let (($e38 (concat $e37 bvlambda_5_)))
(let (($e39 (concat $e38 bvlambda_6_)))
(let (($e40 (concat $e39 bvlambda_7_)))
(let (($e41 (ite (= #b1 bvlambda_4_) $e40 $e36)))
(let (($e42 (store a25 $e1 $e41)))
(let (($e43 (store $e42 $e32 $e30)))
(let (($e44 (select $e43 (bvnot $e1))))
(let (($e45 (bvand (bvnot $e44) (bvnot $e31))))
(let (($e46 (concat $e4 bvlambda_4_)))
(let (($e47 (concat $e46 bvlambda_5_)))
(let (($e48 (concat $e47 bvlambda_6_)))
(let (($e49 (concat $e48 bvlambda_7_)))
(let (($e50 (concat (bvnot $e4) bvlambda_4_)))
(let (($e51 (concat $e50 bvlambda_5_)))
(let (($e52 (concat $e51 bvlambda_6_)))
(let (($e53 (concat $e52 bvlambda_7_)))
(let (($e54 (ite (= #b1 bvlambda_4_) $e53 $e49)))
(let (($e55 (ite (bvult (bvnot $e3) $e54) #b1 #b0)))
(let (($e56 (concat $e1 (bvnot $e55))))
(let (($e57 (ite (bvult $e2 $e56) #b1 #b0)))
(let (($e58 (concat $e10 $e57)))
(let (($e59 (concat (bvnot $e10) $e57)))
(let (($e60 (ite (= #b1 $e57) $e59 $e58)))
(let (($e61 (ite (= $e45 $e60) #b1 #b0)))
(let (($e62 (concat $e10 $e61)))
(let (($e63 (ite (bvult $e62 $e45) #b1 #b0)))
(let (($e64 (select a25 $e1)))
(let (($e65 ((_ extract 1 1) $e64)))
(let (($e66 (store $e29 $e65 (bvnot $e5))))
(let (($e67 (select $e66 (bvnot $e1))))
(let (($e68 (ite (bvult $e26 $e67) #b1 #b0)))
(let (($e69 (bvand $e68 $e63)))
(let (($e70 ((_ extract 11 0) $e26)))
(let (($e71 (ite (bvult $e70 $e49) #b1 #b0)))
(let (($e72 ((_ extract 12 12) $e26)))
(let (($e73 (bvand (bvnot $e72) (bvnot $e71))))
(let (($e74 (ite (= (bvnot $e6) $e64) #b1 #b0)))
(let (($e75 (ite (= (bvnot $e74) $e73) #b1 #b0)))
(let (($e76 (bvand $e75 $e69)))
(let (($e77 (ite (bvult (bvnot $e6) $e44) #b1 #b0)))
(let (($e78 ((_ extract 11 0) $e27)))
(let (($e79 (ite (bvult $e78 $e11) #b1 #b0)))
(let (($e80 (bvand (bvnot $e28) (bvnot $e79))))
(let (($e81 (bvand $e80 $e77)))
(let (($e82 (bvand (bvnot $e81) (bvnot $e76))))
(let (($e83 ((_ extract 12 12) $e30)))
(let (($e84 (store a25 $e1 $e6)))
(let (($e85 (store $e84 bvlambda_6_ $e9)))
(let (($e86 (select $e85 $e83)))
(let (($e87 ((_ extract 12 12) $e86)))
(let (($e88 ((_ extract 12 12) $e64)))
(let (($e89 (ite (= $e88 $e87) #b1 #b0)))
(let (($e90 ((_ extract 11 0) $e86)))
(let (($e91 ((_ extract 11 0) $e64)))
(let (($e92 (ite (bvult $e91 $e90) #b1 #b0)))
(let (($e93 (bvand $e92 $e89)))
(let (($e94 (bvand $e88 (bvnot $e87))))
(let (($e95 (bvand (bvnot $e94) (bvnot $e93))))
(let (($e96 (concat $e8 bvlambda_1_)))
(let (($e97 (concat $e96 bvlambda_2_)))
(let (($e98 (concat $e97 bvlambda_3_)))
(let (($e99 (ite (bvult $e98 $e45) #b1 #b0)))
(let (($e100 (ite (= $e99 (bvnot $e95)) #b1 #b0)))
(let (($e101 ((_ extract 11 0) $e31)))
(let (($e102 (concat $e12 $e57)))
(let (($e103 (concat (bvnot $e12) $e57)))
(let (($e104 (ite (= #b1 $e57) $e103 $e102)))
(let (($e105 (bvadd $e13 $e104)))
(let (($e106 (concat $e1 $e105)))
(let (($e107 (ite (bvult $e106 $e101) #b1 #b0)))
(let (($e108 ((_ extract 12 12) $e31)))
(let (($e109 (bvand (bvnot $e108) $e107)))
(let (($e110 (bvand $e109 $e100)))
(let (($e111 (ite (= $e10 $e91) #b1 #b0)))
(let (($e112 (bvand (bvnot $e88) (bvnot $e111))))
(let (($e113 (bvand (bvnot $e112) (bvnot $e110))))
(let (($e114 (bvand (bvnot $e113) (bvnot $e82))))
(let (($e115 (concat $e8 $e57)))
(let (($e116 (concat (bvnot $e8) $e57)))
(let (($e117 (ite (= #b1 $e57) $e116 $e115)))
(let (($e118 ((_ extract 1 0) $e117)))
(let (($e119 (ite (= bvlambda_7_ $e118) #b1 #b0)))
(let (($e120 ((_ extract 2 2) $e117)))
(let (($e121 (ite (= bvlambda_6_ $e120) #b1 #b0)))
(let (($e122 ((_ extract 3 3) $e117)))
(let (($e123 (ite (= bvlambda_5_ $e122) #b1 #b0)))
(let (($e124 ((_ extract 4 4) $e117)))
(let (($e125 (ite (= bvlambda_4_ $e124) #b1 #b0)))
(let (($e126 (bvand $e125 $e123)))
(let (($e127 (bvand $e126 $e121)))
(let (($e128 (bvand $e127 $e119)))
(let (($e129 (bvand $e57 (bvnot $e128))))
(let (($e130 (concat $e12 $e61)))
(let (($e131 (concat (bvnot $e12) $e61)))
(let (($e132 (ite (= #b1 $e61) $e131 $e130)))
(let (($e133 ((_ extract 10 10) $e132)))
(let (($e134 ((_ extract 10 10) $e105)))
(let (($e135 (ite (= $e134 $e133) #b1 #b0)))
(let (($e136 ((_ extract 9 0) $e105)))
(let (($e137 ((_ extract 9 0) $e132)))
(let (($e138 (ite (bvult $e137 $e136) #b1 #b0)))
(let (($e139 (bvand $e138 $e135)))
(let (($e140 (bvand (bvnot $e134) $e133)))
(let (($e141 (bvand (bvnot $e140) (bvnot $e139))))
(let (($e142 (bvand (bvnot $e99) $e141)))
(let (($e143 (bvand $e128 $e142)))
(let (($e144 (bvand (bvnot $e143) (bvnot $e129))))
(let (($e145 ((_ extract 11 0) $e30)))
(let (($e146 (ite (bvult $e145 (bvnot $e3)) #b1 #b0)))
(let (($e147 (bvand (bvnot $e83) (bvnot $e146))))
(let (($e148 (bvand (bvnot $e147) $e144)))
(let (($e149 (ite (bvult $e86 $e64) #b1 #b0)))
(let (($e150 (concat (bvnot $e10) (bvnot $e55))))
(let (($e151 (concat $e10 (bvnot $e55))))
(let (($e152 (ite (= #b1 $e55) $e151 $e150)))
(let (($e153 (ite (= $e45 $e152) #b1 #b0)))
(let (($e154 (concat $e10 $e153)))
(let (($e155 (ite (bvult $e154 $e86) #b1 #b0)))
(let (($e156 (bvand (bvnot $e155) $e149)))
(let (($e157 (bvand $e57 $e155)))
(let (($e158 (bvand (bvnot $e157) (bvnot $e156))))
(let (($e159 (ite (bvult $e30 (bvnot $e5)) #b1 #b0)))
(let (($e160 (bvand (bvnot $e159) (bvnot $e158))))
(let (($e161 (bvand (bvnot $e160) (bvnot $e148))))
(let (($e162 (ite (= $e87 $e108) #b1 #b0)))
(let (($e163 (ite (bvult $e90 $e101) #b1 #b0)))
(let (($e164 (bvand $e163 $e162)))
(let (($e165 (bvand $e87 (bvnot $e108))))
(let (($e166 (bvand (bvnot $e165) (bvnot $e164))))
(let (($e167 (concat (bvnot $e10) $e61)))
(let (($e168 (ite (= #b1 $e61) $e167 $e62)))
(let (($e169 ((_ extract 2 0) $e168)))
(let (($e170 ((_ extract 12 10) $e67)))
(let (($e171 (ite (= (bvnot $e170) $e169) #b1 #b0)))
(let (($e172 ((_ extract 12 3) $e168)))
(let (($e173 ((_ extract 9 0) $e67)))
(let (($e174 (ite (= (bvnot $e173) $e172) #b1 #b0)))
(let (($e175 (bvand $e174 $e171)))
(let (($e176 (bvand (bvnot $e175) (bvnot $e166))))
(let (($e177 (concat $e14 $e105)))
(let (($e178 (concat (bvnot $e14) $e105)))
(let (($e179 (ite (= #b1 $e134) $e178 $e177)))
(let (($e180 (ite (bvult $e179 $e44) #b1 #b0)))
(let (($e181 (concat $e15 $e153)))
(let (($e182 (ite (bvult $e181 (bvnot $e3)) #b1 #b0)))
(let (($e183 (concat (bvnot $e10) (bvnot $e182))))
(let (($e184 (concat $e10 (bvnot $e182))))
(let (($e185 (ite (= #b1 $e182) $e184 $e183)))
(let (($e186 ((_ extract 12 12) $e185)))
(let (($e187 (ite (= $e28 $e186) #b1 #b0)))
(let (($e188 ((_ extract 11 0) $e185)))
(let (($e189 (ite (bvult $e78 $e188) #b1 #b0)))
(let (($e190 (bvand $e189 $e187)))
(let (($e191 (bvand $e28 (bvnot $e186))))
(let (($e192 (bvand (bvnot $e191) (bvnot $e190))))
(let (($e193 (bvand (bvnot $e192) $e180)))
(let (($e194 (bvand $e175 $e193)))
(let (($e195 (bvand (bvnot $e194) (bvnot $e176))))
(let (($e196 (bvand $e195 (bvnot $e161))))
(let (($e197 (bvand (bvnot $e196) (bvnot $e114))))
(let (($e198 (concat $e16 bvlambda_1_)))
(let (($e199 (concat $e198 bvlambda_2_)))
(let (($e200 (concat $e199 bvlambda_3_)))
(let (($e201 (concat (bvnot $e16) bvlambda_1_)))
(let (($e202 (concat $e201 bvlambda_2_)))
(let (($e203 (concat $e202 bvlambda_3_)))
(let (($e204 (ite (= #b1 bvlambda_1_) $e203 $e200)))
(let (($e205 ((_ extract 12 0) $e204)))
(let (($e206 (ite (bvult $e26 $e205) #b1 #b0)))
(let (($e207 ((_ extract 13 13) $e204)))
(let (($e208 (bvand (bvnot $e207) $e206)))
(let (($e209 ((_ extract 8 0) $e67)))
(let (($e210 (concat (bvnot $e209) (bvnot $e170))))
(let (($e211 (ite (bvult $e210 $e17) #b1 #b0)))
(let (($e212 ((_ extract 9 9) $e67)))
(let (($e213 (bvand (bvnot $e212) $e211)))
(let (($e214 (bvand (bvnot $e213) (bvnot $e208))))
(let (($e215 ((_ extract 11 0) $e67)))
(let (($e216 (concat $e15 (bvnot $e77))))
(let (($e217 (ite (bvult $e216 $e215) #b1 #b0)))
(let (($e218 ((_ extract 12 12) $e67)))
(let (($e219 (bvand (bvnot $e218) $e217)))
(let (($e220 (bvand $e213 (bvnot $e219))))
(let (($e221 (bvand (bvnot $e220) (bvnot $e214))))
(let (($e222 ((_ extract 11 0) $e45)))
(let (($e223 (ite (= $e10 $e222) #b1 #b0)))
(let (($e224 ((_ extract 12 12) $e45)))
(let (($e225 (bvand (bvnot $e224) (bvnot $e223))))
(let (($e226 (bvand $e225 $e221)))
(let (($e227 (bvand (bvnot $e225) (bvnot $e221))))
(let (($e228 (bvand (bvnot $e227) (bvnot $e226))))
(let (($e229 (ite (= $e228 $e197) #b1 #b0)))
 (not (= $e229 #b0))))))))))))))))))))))))))))))))))))))))))))))))))))))))))))))))))))))))))))))))))))))))))))))))))))))))))))))))))))))))))))))))))))))))))))))))))))))))))))))))))))))))))))))))))))))))))))))))))))))))))))))))))))))))))))))))
(check-sat)
(exit)
